p cnf 16 0
p Central cells
p Dead Cell 6 1 1
11 9 5 3 -1 -2 0
11 9 5 -3 2 -1 0
11 9 5 -3 -2 1 0
11 9 -5 3 2 -1 0
11 9 -5 3 -2 1 0
11 9 -5 -3 1 2 0
11 -9 5 3 2 -1 0
11 -9 5 3 -2 1 0
11 -9 5 -3 1 2 0
11 -9 -5 1 2 3 0
-11 9 5 3 2 -1 0
-11 9 5 3 -2 1 0
-11 9 5 -3 1 2 0
-11 9 -5 1 2 3 0
-11 -9 1 2 3 5 0
p Alive Cell 7 1 2
7 0
p 2<= N <= 3, we have 1
p Take 7 out of 7 positive
2 3 4 6 8 11 12 0
p Take 3 out of 7 negative
-2 -3 -4 0
-6 -2 -3 0
-6 -4 -2 0
-6 -4 -3 0
-8 -2 -3 0
-8 -4 -2 0
-8 -4 -3 0
-8 -6 -2 0
-8 -6 -3 0
-8 -6 -4 0
-11 -2 -3 0
-11 -4 -2 0
-11 -4 -3 0
-11 -6 -2 0
-11 -6 -3 0
-11 -6 -4 0
-11 -8 -2 0
-11 -8 -3 0
-11 -8 -4 0
-11 -8 -6 0
-12 -2 -3 0
-12 -4 -2 0
-12 -4 -3 0
-12 -6 -2 0
-12 -6 -3 0
-12 -6 -4 0
-12 -8 -2 0
-12 -8 -3 0
-12 -8 -4 0
-12 -8 -6 0
-12 -11 -2 0
-12 -11 -3 0
-12 -11 -4 0
-12 -11 -6 0
-12 -11 -8 0
p Alive Cell 10 2 1
10 0
p 2<= N <= 3, we have 1
p Take 7 out of 7 positive
5 6 9 11 13 14 15 0
p Take 3 out of 7 negative
-5 -6 -9 0
-11 -5 -6 0
-11 -9 -5 0
-11 -9 -6 0
-13 -5 -6 0
-13 -9 -5 0
-13 -9 -6 0
-13 -11 -5 0
-13 -11 -6 0
-13 -11 -9 0
-14 -5 -6 0
-14 -9 -5 0
-14 -9 -6 0
-14 -11 -5 0
-14 -11 -6 0
-14 -11 -9 0
-14 -13 -5 0
-14 -13 -6 0
-14 -13 -9 0
-14 -13 -11 0
-15 -5 -6 0
-15 -9 -5 0
-15 -9 -6 0
-15 -11 -5 0
-15 -11 -6 0
-15 -11 -9 0
-15 -13 -5 0
-15 -13 -6 0
-15 -13 -9 0
-15 -13 -11 0
-15 -14 -5 0
-15 -14 -6 0
-15 -14 -9 0
-15 -14 -11 0
-15 -14 -13 0
p Dead Cell 11 2 2
16 15 14 12 -6 -8 0
16 15 14 -12 8 -6 0
16 15 14 -12 -8 6 0
16 15 -14 12 8 -6 0
16 15 -14 12 -8 6 0
16 15 -14 -12 6 8 0
16 -15 14 12 8 -6 0
16 -15 14 12 -8 6 0
16 -15 14 -12 6 8 0
16 -15 -14 6 8 12 0
-16 15 14 12 8 -6 0
-16 15 14 12 -8 6 0
-16 15 14 -12 6 8 0
-16 15 -14 6 8 12 0
-16 -15 6 8 12 14 0
p Vertical sides cells
p Dead Cell 5 1 0
9 -1 -2 -6 0
-9 6 -1 -2 0
-9 -6 2 -1 0
-9 -6 -2 1 0
p Not three in a column
-1 -5 -9 0
p Dead Cell 8 1 3
12 -3 -4 -11 0
-12 11 -3 -4 0
-12 -11 4 -3 0
-12 -11 -4 3 0
p Not three in a column
-4 -8 -12 0
p Dead Cell 9 2 0
14 -5 -6 -13 0
-14 13 -5 -6 0
-14 -13 6 -5 0
-14 -13 -6 5 0
p Not three in a column
-5 -9 -13 0
p Dead Cell 12 2 3
16 -8 -11 -15 0
-16 15 -8 -11 0
-16 -15 11 -8 0
-16 -15 -11 8 0
p Not three in a column
-8 -12 -16 0
p Horizontal sides cells
p Dead Cell 2 0 1
6 -1 -3 -5 0
-6 5 -1 -3 0
-6 -5 3 -1 0
-6 -5 -3 1 0
p Not three in a row
-1 -2 -3 0
p Dead Cell 14 3 1
15 -9 -11 -13 0
-15 13 -9 -11 0
-15 -13 11 -9 0
-15 -13 -11 9 0
p Not three in a row
-13 -14 -15 0
p Dead Cell 3 0 2
8 -2 -4 -6 0
-8 6 -2 -4 0
-8 -6 4 -2 0
-8 -6 -4 2 0
p Not three in a row
-2 -3 -4 0
p Dead Cell 15 3 2
16 -11 -12 -14 0
-16 14 -11 -12 0
-16 -14 12 -11 0
-16 -14 -12 11 0
p Not three in a row
-14 -15 -16 0
p Corners
p Dead Cell 1 0 0
p K = 4 > dead neighbours= 3  -- not sat
p Dead Cell 4 0 3
p K = 3 > dead neighbours= 2  -- not sat
p Dead Cell 13 3 0
p K = 3 > dead neighbours= 2  -- not sat
p Dead Cell 16 3 3
p K = 4 > dead neighbours= 3  -- not sat
